NAME : dataset12
TYPE : TSP
COMMENT : 12 puntos para ejecutar
DIMENSION : 12
EDGE_WEIGHT_TYPE : EUC_2D
NODE_COORD_SECTION
1 186.2275449102 45.8261370178
2 172.5864739288 225.5456750202
3 124.8536109304 107.5181891673
4 231.8036286019 157.3402417962
5 411.1261872456 235.6507679871
6 88.1720430108 282.6422372228
7 89.1346779440 132.3047251688
8 130.3934871099 188.1077038145
9 113.3038782523 405.4429028815
10 60.7512248231 33.2255456750
11 154.0864356012 29.4441050703
12 142.5827107791 267.2594987874
EOF